
Gurobi 9.5.2 (mac64[arm]) logging started Mon Apr 24 19:55:34 2023

Set parameter LogFile to value "Java/output/pure_mip/scenario_seed_4_nJob_30_machineCount_1/mip_increment_5/log.txt"
Gurobi Optimizer version 9.5.2 build v9.5.2rc0 (mac64[arm])
Thread count: 8 physical cores, 8 logical processors, using up to 8 threads
Optimize a model with 472 rows, 4940 columns and 20820 nonzeros
Model fingerprint: 0xb091e25e
Variable types: 0 continuous, 4940 integer (4940 binary)
Coefficient statistics:
  Matrix range     [1e+00, 3e+02]
  Objective range  [5e+00, 6e+06]
  Bounds range     [1e+00, 1e+00]
  RHS range        [1e+00, 1e+00]
Presolve removed 12 rows and 503 columns
Presolve time: 0.03s
Presolved: 460 rows, 4437 columns, 18696 nonzeros
Variable types: 0 continuous, 4437 integer (4437 binary)

Root relaxation: objective 1.177125e+04, 3094 iterations, 0.07 seconds (0.11 work units)

    Nodes    |    Current Node    |     Objective Bounds      |     Work
 Expl Unexpl |  Obj  Depth IntInf | Incumbent    BestBd   Gap | It/Node Time

     0     0 11771.2519    0  180          - 11771.2519      -     -    0s
H    0     0                    2.869920e+07 11771.2519   100%     -    0s
H    0     0                    1.537019e+07 11771.2519   100%     -    0s
H    0     0                    1.232062e+07 11771.2519   100%     -    0s
H    0     0                    1.219233e+07 11771.2519   100%     -    0s
H    0     0                    1.219108e+07 11771.2519   100%     -    0s
H    0     0                    1.218944e+07 11826.6393   100%     -    0s
     0     0 11826.6393    0  304 1.2189e+07 11826.6393   100%     -    0s
H    0     0                    1.084264e+07 11826.6393   100%     -    0s
     0     0 11833.1561    0  302 1.0843e+07 11833.1561   100%     -    0s
     0     0 11833.1700    0  302 1.0843e+07 11833.1700   100%     -    0s
H    0     0                    5827350.0000 11873.8776   100%     -    0s
     0     0 11873.8776    0  317 5827350.00 11873.8776   100%     -    0s
H    0     0                    5827085.0000 11873.8776   100%     -    0s
     0     0 11877.3982    0  316 5827085.00 11877.3982   100%     -    0s
     0     0 11878.6786    0  319 5827085.00 11878.6786   100%     -    0s
     0     0 11878.6786    0  318 5827085.00 11878.6786   100%     -    0s
H    0     0                    3025965.0000 11878.6786   100%     -    0s
     0     0 11899.4195    0  317 3025965.00 11899.4195   100%     -    0s
H    0     0                    2983485.0000 11899.4195   100%     -    0s
H    0     0                    2983465.0000 11899.4195   100%     -    0s
H    0     0                    2983110.0000 11899.4195   100%     -    0s
     0     0 11904.0778    0  323 2983110.00 11904.0778   100%     -    0s
     0     0 11906.1680    0  325 2983110.00 11906.1680   100%     -    0s
     0     0 11906.2287    0  325 2983110.00 11906.2287   100%     -    0s
H    0     0                    2948560.0000 11936.3750   100%     -    0s
     0     0 11936.3750    0  358 2948560.00 11936.3750   100%     -    0s
H    0     0                    2948555.0000 11936.3750   100%     -    0s
     0     0 11941.5397    0  380 2948555.00 11941.5397   100%     -    0s
     0     0 11944.2909    0  377 2948555.00 11944.2909   100%     -    0s
     0     0 11944.7656    0  389 2948555.00 11944.7656   100%     -    0s
     0     0 11944.9005    0  384 2948555.00 11944.9005   100%     -    0s
H    0     0                    2738055.0000 11982.1635   100%     -    0s
H    0     0                    2738050.0000 11982.1635   100%     -    0s
     0     0 11982.1635    0  371 2738050.00 11982.1635   100%     -    0s
H    0     0                    2677230.0000 11982.1635   100%     -    0s
H    0     0                    73110.000000 11984.8113  83.6%     -    0s
     0     0 11984.8113    0  394 73110.0000 11984.8113  83.6%     -    0s
     0     0 11987.3913    0  389 73110.0000 11987.3913  83.6%     -    0s
     0     0 11987.7018    0  384 73110.0000 11987.7018  83.6%     -    0s
     0     0 11987.7634    0  386 73110.0000 11987.7634  83.6%     -    0s
H    0     0                    17165.000000 12005.9176  30.1%     -    1s
H    0     0                    15500.000000 12005.9176  22.5%     -    1s
     0     0 12005.9176    0  389 15500.0000 12005.9176  22.5%     -    1s
H    0     0                    15395.000000 12005.9176  22.0%     -    1s
H    0     0                    15305.000000 12008.0331  21.5%     -    1s
H    0     0                    15140.000000 12008.0331  20.7%     -    1s
     0     0 12008.0331    0  413 15140.0000 12008.0331  20.7%     -    1s
H    0     0                    15060.000000 12008.4143  20.3%     -    1s
     0     0 12008.4151    0  420 15060.0000 12008.4151  20.3%     -    1s
     0     0 12008.6141    0  413 15060.0000 12008.6141  20.3%     -    1s
     0     0 12018.5682    0  418 15060.0000 12018.5682  20.2%     -    1s
     0     0 12018.5682    0  206 15060.0000 12018.5682  20.2%     -    1s
     0     0 12018.5682    0  312 15060.0000 12018.5682  20.2%     -    1s
     0     0 12018.5682    0  280 15060.0000 12018.5682  20.2%     -    1s
H    0     0                    15050.000000 12018.5682  20.1%     -    1s
     0     0 12018.5682    0  320 15050.0000 12018.5682  20.1%     -    1s
     0     0 12018.5682    0  330 15050.0000 12018.5682  20.1%     -    1s
     0     0 12024.4086    0  356 15050.0000 12024.4086  20.1%     -    1s
     0     0 12024.9785    0  351 15050.0000 12024.9785  20.1%     -    1s
     0     0 12025.2017    0  363 15050.0000 12025.2017  20.1%     -    1s
     0     0 12025.2017    0  366 15050.0000 12025.2017  20.1%     -    1s
     0     0 12034.0167    0  333 15050.0000 12034.0167  20.0%     -    1s
     0     0 12035.4618    0  346 15050.0000 12035.4618  20.0%     -    1s
     0     0 12035.7058    0  347 15050.0000 12035.7058  20.0%     -    1s
     0     0 12043.8294    0  385 15050.0000 12043.8294  20.0%     -    1s
     0     0 12045.1675    0  386 15050.0000 12045.1675  20.0%     -    1s
     0     0 12045.5324    0  392 15050.0000 12045.5324  20.0%     -    1s
     0     0 12045.6288    0  396 15050.0000 12045.6288  20.0%     -    1s
     0     0 12052.2491    0  395 15050.0000 12052.2491  19.9%     -    1s
     0     0 12053.8973    0  395 15050.0000 12053.8973  19.9%     -    1s
     0     0 12054.5003    0  393 15050.0000 12054.5003  19.9%     -    1s
     0     0 12054.5950    0  399 15050.0000 12054.5950  19.9%     -    1s
H    0     0                    15045.000000 12054.5950  19.9%     -    1s
     0     0 12058.1192    0  391 15045.0000 12058.1192  19.9%     -    1s
     0     0 12059.4076    0  397 15045.0000 12059.4076  19.8%     -    1s
     0     0 12059.7977    0  427 15045.0000 12059.7977  19.8%     -    1s
     0     0 12059.9604    0  436 15045.0000 12059.9604  19.8%     -    1s
     0     0 12063.7049    0  459 15045.0000 12063.7049  19.8%     -    2s
     0     0 12063.8693    0  457 15045.0000 12063.8693  19.8%     -    2s
     0     0 12070.2501    0  463 15045.0000 12070.2501  19.8%     -    2s
H    0     0                    12475.000000 12070.2501  3.24%     -    2s
     0     0 12072.8753    0  462 12475.0000 12072.8753  3.22%     -    2s
     0     0 12073.9034    0  464 12475.0000 12073.9034  3.22%     -    2s
     0     0 12074.2896    0  466 12475.0000 12074.2896  3.21%     -    2s
     0     0 12077.5376    0  489 12475.0000 12077.5376  3.19%     -    2s
H    0     0                    12455.000000 12077.5376  3.03%     -    2s
     0     0 12078.4216    0  509 12455.0000 12078.4216  3.02%     -    2s
     0     0 12078.6315    0  508 12455.0000 12078.6315  3.02%     -    2s
     0     0 12079.8758    0  504 12455.0000 12079.8758  3.01%     -    2s
     0     0 12079.8758    0  484 12455.0000 12079.8758  3.01%     -    2s
H    0     0                    12395.000000 12079.9181  2.54%     -    2s
     0     2 12079.9181    0  482 12395.0000 12079.9181  2.54%     -    2s
H   35    29                    12390.000000 12112.1035  2.24%   739    3s
H  152    89                    12385.000000 12112.1035  2.20%   632    4s
   295   112 12328.7624   37  283 12385.0000 12112.1035  2.20%   503    5s
H  305   112                    12350.000000 12112.1035  1.93%   502    5s

Cutting planes:
  Gomory: 12
  Cover: 31
  Clique: 127
  MIR: 281
  StrongCG: 99
  GUB cover: 147
  Zero half: 42
  RLT: 2

Explored 1971 nodes (469780 simplex iterations) in 8.90 seconds (19.93 work units)
Thread count was 8 (of 8 available processors)

Solution count 10: 12350 12385 12390 ... 15140

Optimal solution found (tolerance 1.00e-04)
Best objective 1.235000000000e+04, best bound 1.235000000000e+04, gap 0.0000%
